certificates/rado_a13_c51_N24.cnf
c Rad2 upper bound instance: x1 + 13*x2 - x3 = 51, interval [1,24]
p cnf 24 88
1 2 4 0
-1 -2 -4 0
1 5 15 0
-1 -5 -15 0
2 3 4 0
-2 -3 -4 0
2 5 16 0
-2 -5 -16 0
3 4 0
-3 -4 0
3 5 17 0
-3 -5 -17 0
4 5 0
-4 -5 0
4 5 18 0
-4 -5 -18 0
4 5 6 0
-4 -5 -6 0
5 19 0
-5 -19 0
4 6 7 0
-4 -6 -7 0
5 6 20 0
-5 -6 -20 0
4 7 8 0
-4 -7 -8 0
5 7 21 0
-5 -7 -21 0
4 8 9 0
-4 -8 -9 0
5 8 22 0
-5 -8 -22 0
4 9 10 0
-4 -9 -10 0
5 9 23 0
-5 -9 -23 0
4 10 11 0
-4 -10 -11 0
5 10 24 0
-5 -10 -24 0
4 11 12 0
-4 -11 -12 0
4 12 13 0
-4 -12 -13 0
1 3 13 0
-1 -3 -13 0
4 13 14 0
-4 -13 -14 0
2 3 14 0
-2 -3 -14 0
4 14 15 0
-4 -14 -15 0
3 15 0
-3 -15 0
4 15 16 0
-4 -15 -16 0
3 4 16 0
-3 -4 -16 0
4 16 17 0
-4 -16 -17 0
4 17 18 0
-4 -17 -18 0
3 6 18 0
-3 -6 -18 0
4 18 19 0
-4 -18 -19 0
3 7 19 0
-3 -7 -19 0
4 19 20 0
-4 -19 -20 0
3 8 20 0
-3 -8 -20 0
4 20 21 0
-4 -20 -21 0
3 9 21 0
-3 -9 -21 0
4 21 22 0
-4 -21 -22 0
3 10 22 0
-3 -10 -22 0
4 22 23 0
-4 -22 -23 0
3 11 23 0
-3 -11 -23 0
4 23 24 0
-4 -23 -24 0
3 12 24 0
-3 -12 -24 0
