certificates/rado_a13_c51_N24.drat
-23 -24 0
d -23 -4 -24 0
11 12 23 0
-4 23 0
-24 0
23 0
-4 0
3 0
5 0
-15 0
-11 0
-17 0
-19 0
-9 0
16 0
14 0
12 0
10 0
18 0
20 0
8 0
-2 0
-22 0
-6 0
0
